100
128
59
38
46
51
32
31
51
44
34
60
4
25
44
36
50
6
41
11
12
28
49
44
39
39
10
48
63
63
56
8
64
21
58
24
19
17
12
47
2
17
30
10
17
8
15
23
16
34
18
46
26
33
28
23
11
10
12
13
62
4
18
29
39
49
48
20
26
25
42
29
44
24
29
24
39
18
35
21
18
24
22
29
5
47
31
19
37
46
27
25
29
25
24
54
18
38
49
50
39
32